NAME : MM1_targets
COMMENT : Instance 1 in MD algorithm. Coordinates of targets and vhcl-target allocation given. Vehicle indeces start from 1.
TYPE : TSP
DIMENSION : 10
EDGE_WEIGHT_TYPE : ATT
NODE_COORD_SECTION
1 10.0000 100.0000 -
2 20.0000 40.0000 -
3 70.0000 80.0000 -
4 30.0000 40.0000 -
5 20.0000 50.0000 -
6 90.0000 30.0000 -
7 50.0000 70.0000 -
8 80.0000 30.0000 -
9 30.0000 70.0000 -
10 80.0000 90.0000 -
EOF
